p tw 37 40
1 2
2 13
3 4
4 5
4 15
5 6
6 7
6 9
7 8
8 11
9 10
10 11
11 12
12 14
13 24
14 30
15 16
16 17
17 18
17 28
18 19
19 20
19 22
20 21
21 25
22 23
23 25
24 32
25 26
26 27
27 30
28 29
29 30
30 31
32 33
33 34
34 35
35 36
36 37
37 3
